39319813685519827095015,5,1,2,06,1,1,2,012,4,1,2,011,3,1,2,07,9,1,2,05,5,1,2,05,14,1,2,07,8,1,2,09,11,1,2,07,11,1,2,05,4,1,2,06,15,1,2,010,15,1,2,06,7,1,2,02,8,1,2,012,1,1,2,012,12,1,2,015,2,1,2,05,4,1,2,04,13,1,2,07,13,1,2,06,13,1,2,014,2,1,2,013,4,1,2,05,14,1,2,012,7,1,2,010,6,1,2,011,4,1,2,09,10,1,2,015,2,1,2,09,10,1,2,07,13,1,2,03,8,1,2,011,11,1,2,011,3,1,2,08,13,1,2,01,12,1,2,01,3,1,2,011,14,1,2,08,11,1,2,01,13,1,2,01,14,1,2,014,11,1,2,03,8,1,2,06,6,1,2,06,2,1,2,011,15,1,2,09,4,1,2,011,1,1,2,012,2,1,2,0